16
31957 66111
117108 215853
250834 452976
775747 1435157
994544 1901253
315281 649654
937184 2034198
258099 496995
877986 1725886
327103 678356
632921 1329367
518873 1088047
708189 1507322
537974 1041781
732066 1607816
838024 1634282
4426945